20	5
0	6	4	5	14	2	1	20
1	1	12
2	0
3	2	16	6
4	2	12	3
5	1	14
6	3	19	7	18
7	1	11
8	1	10
9	1	13
10	1	15
11	1	17
12	1	8
13	0
14	1	9
15	1	6
16	1	21
17	1	21
18	1	21
19	1	21
20	1	21
21	0
0	0	0	0	0	0	0
1	2	5	4	2	1	0
2	2	1	3	2	3	2
3	6	2	0	3	1	0
4	5	0	0	1	0	0
5	4	4	0	3	0	2
6	2	0	2	5	1	1
7	6	3	5	3	5	2
8	1	4	5	4	5	2
9	2	3	2	1	2	4
10	4	0	0	0	4	3
11	5	1	2	5	4	2
12	1	5	2	3	1	5
13	6	2	3	0	0	2
14	7	1	0	4	0	2
15	1	2	3	2	2	1
16	1	5	1	4	1	5
17	8	0	0	4	1	5
18	10	5	3	4	0	0
19	5	0	4	0	5	3
20	9	0	1	1	5	0
21	0	0	0	0	0	0
7	7	7	7	6
